650 1130 1605 620
1740 245 1740 245
1465 200 1530 5
975 580 1465 200
580 1175 1215 245
410 250 1320 315
480 415 1220 580
770 610 595 360
700 580 560 365
685 595 605 625
795 645 575 665
1170 65 830 610
1250 400 835 625
1215 245 770 610
845 680 720 635
845 655 685 610
720 635 685 595
685 610 700 580
520 585 875 920
420 555 760 650
725 370 795 645
605 625 845 680
415 635 880 660
830 610 845 655
835 625 480 415
560 365 410 250
555 815 660 180
875 920 725 370
475 960 555 815
525 1000 510 875
760 650 700 500
880 660 520 585
1530 5 565 575
830 485 300 465
700 500 145 665
565 575 345 750
145 665 415 635
345 750 420 555
95 260 95 260
25 230 25 230
25 185 25 185
300 465 475 960
660 180 525 1000
1605 620 580 1175
595 360 650 1130
575 665 1150 1160
1150 1160 945 685
510 875 1170 65
945 685 1250 400
1220 580 830 485
1320 315 975 580
1340 725 1340 725
